num_nodes = 7;
% Depots
nodes = {1,2,3,4,5,6,7};
num_facilities = 2;
facilities = {6,7};
storageCapacity = array1d(facilities,[100,100]);
fixcost = array1d(facilities,[4,200]);
% Vehicles
num_vehicles = 2;
vehicles = {1,2};
utilityCost = [100,200];
transportCapacity = 5;
% Customers
num_customers = 5;
customers = {1,2,3,4,5};
demandProb = array2d(customers, 0..transportCapacity, 
 [0,0.5,0.2,0,0,0.3,
0,0,1,0,0,0,
0,0,0.5,0.4,0,0.1,
0,1,0,0,0,0,
0,1,0,0,0,0,
]);
% Travel Cost
travelCost = array2d(nodes, nodes,
[0,9,10,4,8,9,13,
9,0,2,13,10,13,7,
10,2,0,14,9,14,9,
4,13,14,0,11,7,15,
8,10,9,11,0,16,17,
9,13,14,7,16,0,11,
13,7,9,15,17,11,0
]);

numSubsets = 31;
customersInSubset = [{1}, {2}, {1, 2}, {3}, {1, 3}, {2, 3}, {1, 2, 3}, {4}, {1, 4}, {2, 4}, {1, 2, 4}, {3, 4}, {1, 3, 4}, {2, 3, 4}, {1, 2, 3, 4}, {5}, {1, 5}, {2, 5}, {1, 2, 5}, {3, 5}, {1, 3, 5}, {2, 3, 5}, {1, 2, 3, 5}, {4, 5}, {1, 4, 5}, {2, 4, 5}, {1, 
2, 4, 5}, {3, 4, 5}, {1, 3, 4, 5}, {2, 3, 4, 5}, {1, 2, 3, 4, 5}];
